248925
89 9 133 68 122 0 121 120 4 81 56 166 1 24 181 140 83 21 137 126 25 70 159 189 38 78 73 131 129 141 179 147 107 135 177 6 163 85 16 198 33 64 170 14 62 155 75 74 79 172 151 158 123 191 182 138 94 118 28 11 12 23 185 104 46 63 40 160 49 17 152 105 26 50 44 115 47 171 80 187 27 193 97 119 146 144 69 108 176 48 55 8 174 52 188 96 186 100 45 102 114 29 136 34 143 61 178 31 91 167 93 192 106 162 95 168 60 110 18 156 51 65 76 39 98 88 71 41 7 134 132 128 37 82 194 124 5 13 86 190 30 72 32 164 142 36 87 125 54 112 169 154 2 92 148 35 10 3 103 149 161 53 19 180 197 157 77 199 196 195 113 117 130 150 111 15 22 58 99 90 183 109 153 67 20 42 139 66 116 57 127 175 184 101 43 173 145 59 165 84 
